; benchmark generated from python API
(set-info :status unknown)
(declare-fun S_1 () Real)
(declare-fun S_2 () Real)
(declare-fun L_4 () Real)
(declare-fun A_4 () Real)
(declare-fun S_4 () Real)
(declare-fun S_3 () Real)
(declare-fun L_2 () Real)
(declare-fun A_2 () Real)
(declare-fun S_0 () Real)
(declare-fun A_1 () Real)
(declare-fun L_1 () Real)
(declare-fun A_0 () Real)
(declare-fun L_0 () Real)
(declare-fun A_3 () Real)
(assert
 (let ((?x825 (* (- 1.0) A_3)))
 (let ((?x735 (* (- 1.0) L_1)))
 (let ((?x1322 (* (- 1.0) S_1)))
 (let ((?x119410 (* (- (/ 1.0 4.0)) L_0)))
 (let ((?x134355 (* (/ 5.0 4.0) A_0)))
 (let ((?x136694 (* (/ 3.0 4.0) S_4)))
 (let (($x165822 (<= (+ ?x136694 ?x134355 ?x119410 ?x1322 L_4 ?x735 ?x825) 0.0)))
 (let ((?x31958 (* (/ 2.0 3.0) S_4)))
 (let ((?x26414 (* (/ 1.0 3.0) A_1)))
 (let ((?x28069 (* (- (/ 4.0 3.0)) L_1)))
 (let ((?x30558 (* (- (/ 1.0 2.0)) L_2)))
 (let ((?x30555 (* (/ 1.0 2.0) A_2)))
 (let ((?x7235 (* (/ 1.0 2.0) S_4)))
 (let (($x30553 (<= (+ ?x7235 ?x30555 ?x30558 ?x735 ?x1322 L_4 A_0 ?x825) 0.0)))
 (let (($x28992 (<= (+ ?x735 S_4 ?x1322 (* (- 1.0) A_4) L_4 A_0) 0.0)))
 (let ((?x744 (* (- 1.0) L_2)))
 (let ((?x724 (* (- 1.0) L_4)))
 (let (($x651 (= ?x724 ?x744)))
 (let (($x1778907 (or $x651 $x28992 $x30553 (<= (+ ?x28069 ?x26414 ?x31958 ?x1322 L_4 A_0 ?x825) 0.0) $x165822)))
 (let ((?x1003 (* (- 1.0) A_0)))
 (let ((?x2211 (* (- 2.0) S_4)))
 (let (($x100369 (<= (+ ?x2211 A_2 ?x744 L_1 S_0 A_4 ?x724 ?x1003) 0.0)))
 (let ((?x30267 (* (/ 1.0 2.0) A_1)))
 (let ((?x31535 (* (/ 1.0 2.0) L_1)))
 (let (($x65327 (<= (+ ?x31535 ?x30267 (* (- (/ 3.0 2.0)) S_4) S_0 ?x724 ?x1003 A_4) 0.0)))
 (let ((?x33952 (* (- (/ 1.0 3.0)) L_0)))
 (let ((?x33957 (* (- (/ 2.0 3.0)) A_0)))
 (let (($x57395 (<= (+ (* (- (/ 4.0 3.0)) S_4) ?x33957 ?x33952 S_0 L_1 ?x724 A_4) 0.0)))
 (let ((?x1637 (* (- 2.0) A_1)))
 (let ((?x726 (* (- 1.0) L_0)))
 (let ((?x1350 (* 2.0 A_0)))
 (let (($x2173 (<= (+ ?x735 ?x1322 A_0) 0.0)))
 (let (($x1254 (<= (+ A_3 (* (- 1.0) S_4) ?x744) 0.0)))
 (let (($x641 (= ?x735 ?x726)))
 (let (($x1857693 (or $x641 $x1254 $x2173 (<= (+ ?x1350 ?x726 ?x1322 L_1 ?x744 ?x1637 A_2) 0.0) $x57395 $x65327 $x100369)))
 (let (($x174171 (<= (+ L_1 (* (- 1.0) A_1) (* 2.0 S_2) ?x1322 A_0 ?x825) 0.0)))
 (let ((?x891 (* (- 1.0) A_4)))
 (let ((?x7423 (* 3.0 S_2)))
 (let ((?x1605 (* 2.0 L_1)))
 (let (($x161449 (<= (+ ?x1605 ?x1637 ?x7423 ?x1322 ?x891 A_0) 0.0)))
 (let (($x31793 (<= (+ L_1 (* (- 1.0) A_1) (* 2.0 S_2) L_2 ?x825) 0.0)))
 (let ((?x737 (* (- 1.0) A_2)))
 (let ((?x1561 (* 2.0 A_1)))
 (let ((?x1533 (* (- 2.0) L_1)))
 (let (($x47601 (<= (+ ?x1533 ?x1561 L_0 L_2 ?x1003 ?x737) 0.0)))
 (let ((?x27045 (* (/ 2.0 3.0) A_1)))
 (let ((?x26020 (* (- (/ 2.0 3.0)) L_1)))
 (let (($x105956 (<= (+ ?x1003 L_0 S_2 ?x26020 (* (/ 2.0 3.0) L_4) ?x27045 (* (- (/ 2.0 3.0)) A_4)) 0.0)))
 (let (($x1618 (<= (+ ?x735 L_2) 0.0)))
 (let (($x1553 (not $x1618)))
 (let (($x1344 (<= (+ A_3 ?x1003 L_0 ?x891 L_4 ?x735 ?x744 A_1) 0.0)))
 (let (($x1336 (<= (+ A_3 ?x1003 L_0 ?x891 ?x744 A_1) 0.0)))
 (let (($x1259 (not $x1336)))
 (let (($x199656 (<= (+ A_4 L_1 (* (- 1.0) A_1) ?x726 A_0 ?x825) 0.0)))
 (let ((?x26397 (* (- 4.0) L_1)))
 (let ((?x2866 (* 4.0 L_4)))
 (let ((?x35348 (* (- 4.0) A_4)))
 (let ((?x69387 (+ (* 3.0 S_4) (* (- 3.0) A_0) (* 3.0 L_0) ?x35348 ?x2866 ?x26397 (* 4.0 A_1))))
 (let (($x65564 (<= ?x69387 0.0)))
 (let ((?x1217 (* (- 2.0) A_3)))
 (let ((?x1326 (* 2.0 L_2)))
 (let ((?x7233 (* (- (/ 1.0 2.0)) L_0)))
 (let ((?x7253 (* (/ 1.0 2.0) A_0)))
 (let ((?x7285 (* (/ 3.0 2.0) S_4)))
 (let (($x7287 (<= (+ ?x7285 ?x7253 ?x7233 ?x1326 ?x1217) 0.0)))
 (let (($x7138 (not $x7287)))
 (let ((?x911 (* 2.0 L_4)))
 (let ((?x1287 (* (- 2.0) A_4)))
 (let ((?x1345 (* 2.0 L_0)))
 (let ((?x1872 (* (- 2.0) A_0)))
 (let (($x1870 (<= (+ S_4 A_2 ?x744 ?x1872 ?x1345 ?x1287 ?x911 ?x1533 ?x1561) 0.0)))
 (let (($x30559 (<= (+ ?x7235 ?x30555 (* (/ 1.0 2.0) L_2) ?x825) 0.0)))
 (let ((?x30562 (* (- (/ 3.0 2.0)) L_2)))
 (let ((?x7175 (* (/ 1.0 2.0) L_0)))
 (let ((?x7162 (* (- (/ 1.0 2.0)) A_0)))
 (let (($x278703 (<= (+ ?x7162 ?x7175 L_1 ?x30562 (* (/ 3.0 2.0) A_2) ?x825) 0.0)))
 (let ((?x27716 (* (- (/ 1.0 3.0)) A_4)))
 (let ((?x28001 (* (/ 1.0 3.0) L_4)))
 (let (($x107356 (<= (+ ?x1003 L_0 S_1 (* (- (/ 1.0 3.0)) L_1) ?x28001 ?x26414 ?x27716) 0.0)))
 (let (($x1596 (<= (+ ?x735 A_1 (* (- 1.0) S_2)) 0.0)))
 (let (($x70200 (not (<= (+ A_2 ?x1003 L_0 S_1 ?x825) 0.0))))
 (let (($x49477 (<= (+ ?x7162 ?x7175 S_1 (* (/ 1.0 2.0) L_2) (* (- (/ 1.0 2.0)) A_2)) 0.0)))
 (let (($x2894 (<= (+ ?x1003 L_0 S_1 L_4 ?x744 A_2 ?x825) 0.0)))
 (let (($x1909 (<= (+ A_2 ?x744 ?x1872 ?x1345 S_1 ?x891 L_4 ?x735 A_1) 0.0)))
 (let (($x159917 (<= (+ A_2 ?x744 ?x1003 L_0 S_1 L_1 ?x825) 0.0)))
 (let ((?x1850 (* (- 3.0) A_3)))
 (let ((?x1939 (* 3.0 A_2)))
 (let ((?x746 (* (- 1.0) A_1)))
 (let ((?x1323 (* (- 3.0) L_2)))
 (let (($x3213 (<= (+ A_4 ?x911 L_1 ?x1323 ?x746 ?x1939 ?x1850) 0.0)))
 (let ((?x1298 (* 2.0 A_3)))
 (let ((?x1319 (* (- 2.0) A_2)))
 (let ((?x3310 (* (- 2.0) S_1)))
 (let ((?x1351 (* (- 2.0) L_0)))
 (let (($x28168 (not (<= (+ ?x1350 ?x1351 ?x3310 ?x1326 (* (- 2.0) L_4) ?x1319 ?x1298) 0.0))))
 (let (($x4152 (not (<= (+ ?x891 ?x724 L_2 ?x737 ?x1298) 0.0))))
 (let (($x1774958 (or $x1596 $x1909 $x4152 $x28168 (<= (+ ?x1350 ?x1351 ?x3310 ?x1319 ?x1298) 0.0) $x107356)))
 (let (($x3321 (<= (+ L_4 L_1 (* (- 2.0) L_2) ?x746 (* 2.0 A_2) ?x825) 0.0)))
 (let (($x2330 (<= (+ (* 2.0 A_2) ?x744 L_1 ?x746 ?x825) 0.0)))
 (let (($x2350 (not $x2330)))
 (let (($x2345 (not (<= (+ ?x1939 A_4 ?x724 L_1 ?x746 ?x1850) 0.0))))
 (let (($x30566 (<= (+ ?x7235 ?x30555 ?x30558 L_4 ?x825) 0.0)))
 (let (($x27659 (<= (+ ?x1298 (* (- 1.0) S_4) ?x744 ?x737) 0.0)))
 (let (($x1896 (<= (+ (* (- 1.0) S_4) A_0 ?x726 A_4 ?x724 L_1 ?x746) 0.0)))
 (let (($x30534 (not (<= (+ ?x7235 ?x30555 ?x30558 L_1 ?x825) 0.0))))
 (let (($x7284 (<= (+ ?x7235 ?x7253 ?x7233 L_2 ?x737) 0.0)))
 (let ((?x50510 (* (- (/ 1.0 2.0)) A_4)))
 (let ((?x30530 (* (- (/ 1.0 2.0)) A_2)))
 (let ((?x54556 (* (- (/ 1.0 2.0)) L_4)))
 (let ((?x30526 (* (/ 1.0 2.0) L_2)))
 (let (($x52335 (<= (+ ?x30526 ?x54556 ?x30530 A_3 ?x50510) 0.0)))
 (let (($x3329 (<= (+ (* 2.0 A_4) L_4 ?x735 A_1 ?x1850) 0.0)))
 (let (($x86975 (<= (+ ?x737 L_2 (* 2.0 S_3) A_0 ?x1322 ?x891 L_4 ?x735) 0.0)))
 (let (($x23020 (<= (+ L_4 S_3 A_0 ?x1322 ?x735 ?x825) 0.0)))
 (let (($x64304 (<= (+ L_1 ?x1637 ?x7423 ?x1322 ?x891 L_4 A_0) 0.0)))
 (let (($x7443 (<= (+ A_0 S_2 ?x1322 L_2 ?x735 ?x737) 0.0)))
 (let (($x733813 (or $x7443 $x64304 (<= (+ ?x746 (* 2.0 S_2) ?x1322 L_4 A_0 ?x825) 0.0) (not $x174171))))
 (let (($x2900 (<= (+ L_4 ?x744 A_2 ?x1217 A_4) 0.0)))
 (let (($x2858 (not $x2900)))
 (let (($x3273 (not $x3329)))
 (let (($x3258 (<= (+ ?x1003 L_0 L_4 S_2 ?x735 A_1 ?x825) 0.0)))
 (let (($x30564 (<= (+ ?x7235 ?x30555 ?x30562 L_1 L_4 ?x825) 0.0)))
 (let (($x1848132 (or $x1596 $x1870 $x30534 $x30564 (not (<= (+ ?x1298 ?x2211 A_2 ?x744 ?x1533 L_0 ?x1003) 0.0)))))
 (let (($x165890 (<= (+ ?x136694 (* (/ 1.0 4.0) A_0) ?x119410 L_4 ?x825) 0.0)))
 (let ((?x31692 (* (/ 3.0 2.0) S_3)))
 (let ((?x28304 (* (- (/ 1.0 2.0)) A_1)))
 (let ((?x31666 (* (- (/ 1.0 2.0)) L_1)))
 (let (($x105683 (<= (+ ?x31666 ?x28304 ?x31692 ?x1322 ?x891 L_4 A_0) 0.0)))
 (let (($x1857363 (or $x2173 (not (<= (+ S_3 A_0 ?x1322 ?x825) 0.0)) (<= (+ ?x744 L_4 S_3 A_0 ?x1322 ?x825) 0.0) $x105683)))
 (let (($x55287 (<= (+ A_3 ?x735 ?x746 S_2 ?x1322 ?x891 L_4 A_0) 0.0)))
 (let (($x2342 (<= (+ A_2 L_2 A_4 ?x724 ?x1217) 0.0)))
 (let (($x2836 (<= (+ ?x1003 L_0 S_2 ?x911 (* (- 2.0) L_2) (* 2.0 A_2) ?x1217) 0.0)))
 (let (($x1850067 (or $x2173 $x2836 (<= (+ A_0 ?x726 (* (- 1.0) S_2) ?x1319 ?x1298) 0.0) $x105956)))
 (let (($x22809 (<= (+ A_2 ?x744 L_4 ?x1003 L_0 ?x735 A_1 ?x825) 0.0)))
 (let (($x3486 (<= (+ S_4 ?x1003 L_0 ?x911 ?x1533 ?x1561 ?x1217) 0.0)))
 (let (($x35301 (<= (+ L_0 (* 2.0 S_2) ?x1322 ?x891 L_4 ?x735) 0.0)))
 (let (($x1829193 (or $x651 $x7443 $x35301 $x52335 (<= (+ ?x7253 ?x7175 L_4 (* (/ 3.0 2.0) S_2) ?x1322 ?x735 ?x825) 0.0))))
 (let (($x1921 (<= (+ A_2 ?x744 ?x1003 L_0 A_1 ?x825) 0.0)))
 (let (($x1889 (not $x1921)))
 (let (($x1837513 (or $x1553 $x1596 $x1870 $x4152 $x65564 (<= (+ S_4 ?x737 L_2 ?x1287 ?x911 ?x1533 ?x1298) 0.0))))
 (let (($x3260 (<= (+ ?x1872 ?x1345 L_4 (* 2.0 S_1) ?x735 A_1 ?x825) 0.0)))
 (let (($x1945 (<= (+ (* 2.0 A_2) (* (- 2.0) L_2) ?x1003 L_0 ?x891 L_4) 0.0)))
 (let ((?x2463 (* 3.0 A_1)))
 (let ((?x2509 (* (- 3.0) L_1)))
 (let ((?x1585 (* 2.0 S_3)))
 (let ((?x2827 (* 3.0 L_4)))
 (let (($x3262 (<= (+ ?x1872 ?x1345 ?x2827 ?x1585 ?x2509 ?x2463 ?x1850) 0.0)))
 (let (($x47452 (<= (+ ?x7253 ?x7233 L_1 ?x30558 ?x746 ?x30555) 0.0)))
 (let (($x2160 (<= (+ (* (- 1.0) S_4) ?x724 A_3) 0.0)))
 (let (($x1913 (<= (+ ?x737 L_2 A_0 ?x726 ?x724 L_1 ?x746 A_3) 0.0)))
 (let (($x1815863 (or $x641 $x1913 $x2160 (not (<= (+ A_0 ?x726 ?x744 ?x1605 ?x1637 A_2) 0.0)) $x57395 $x100369)))
 (let ((?x2331 (* 3.0 A_3)))
 (let ((?x3303 (* (- 3.0) A_1)))
 (let ((?x3307 (* 3.0 L_1)))
 (let ((?x1353 (* (- 3.0) L_4)))
 (let (($x3305 (<= (+ ?x2211 ?x1350 ?x1351 ?x1353 ?x3307 ?x3303 ?x2331) 0.0)))
 (let (($x199629 (not $x199656)))
 (let (($x22567 (<= (+ A_2 (* (- 2.0) L_2) L_4 ?x1003 L_0 A_1 ?x825) 0.0)))
 (let (($x65940 (<= (+ L_0 (* 2.0 S_2) ?x1322 ?x891) 0.0)))
 (let (($x1828427 (or $x651 $x4152 $x7443 (not (<= (+ ?x1003 L_0 ?x7423 ?x1326 ?x1217) 0.0)) $x65940)))
 (let (($x50635 (<= (+ ?x1298 A_0 L_0 S_2 ?x3310 ?x1287 ?x911 ?x26397) 0.0)))
 (let (($x701634 (or $x651 $x7443 $x50635 (<= (+ ?x7162 ?x7175 (* (/ 3.0 2.0) S_2) L_1 ?x825) 0.0))))
 (let (($x28065 (<= (+ L_1 ?x746 S_4 ?x2827 ?x1323 ?x1939 ?x1850) 0.0)))
 (let (($x2217 (<= (+ ?x2211 ?x1939 ?x1323 L_0 ?x1003) 0.0)))
 (let (($x76113 (not (<= (+ S_4 ?x1003 L_0 ?x1561 ?x1217) 0.0))))
 (let (($x1777732 (or $x1596 $x1945 $x4152 (<= (+ (* (- (/ 1.0 2.0)) S_4) ?x7253 ?x7233 ?x1319 ?x1298) 0.0) $x65564 $x76113)))
 (let (($x31853 (<= (+ ?x2211 (* (- 4.0) A_0) (* 4.0 L_0) (* 6.0 S_1)) 0.0)))
 (let (($x22772 (<= (+ (* (- 1.0) S_4) A_2 ?x744 ?x1003 L_0 S_1) 0.0)))
 (let (($x31531 (<= (+ L_1 ?x746 (* (- 1.0) S_4) (* 2.0 S_2)) 0.0)))
 (let (($x1865 (<= (+ S_3 ?x1003 L_0 ?x891 L_4 ?x735 A_1) 0.0)))
 (let ((?x35619 (* (/ 4.0 3.0) S_3)))
 (let ((?x33920 (* (/ 1.0 3.0) L_0)))
 (let ((?x33720 (* (/ 2.0 3.0) A_0)))
 (let (($x35652 (<= (+ ?x33720 ?x33920 ?x35619 ?x1322 ?x891 L_4 ?x735) 0.0)))
 (let (($x64896 (not (<= (+ ?x31666 ?x30267 ?x7235 L_2 ?x737) 0.0))))
 (let (($x692816 (or $x2160 (not $x2217) $x3262 (not (<= (+ ?x1003 L_0 A_4 L_4 ?x1533 ?x1561 ?x1217) 0.0)) $x22809 (not (<= (+ ?x1872 ?x1345 ?x1585 ?x2463 ?x1850) 0.0)))))
 (let (($x146825 (<= (+ ?x33720 ?x33920 ?x35619 ?x1322 ?x891) 0.0)))
 (let (($x23030 (<= (+ S_3 A_0 ?x1322 ?x825) 0.0)))
 (let (($x27867 (<= (+ L_1 ?x746 ?x911 S_3 (* (- 2.0) L_2) (* 2.0 A_2) ?x1217) 0.0)))
 (let (($x26984 (<= (+ L_1 ?x746 S_3 ?x891 L_4 ?x744 A_2) 0.0)))
 (let (($x133913 (<= (+ ?x31535 ?x28304 ?x31692 ?x1322 ?x891 A_0) 0.0)))
 (let (($x33966 (<= (+ (* (/ 1.0 3.0) A_0) ?x33952 ?x724 (* (- (/ 1.0 3.0)) S_3) L_1 ?x746 A_2) 0.0)))
 (let (($x1792529 (or $x23030 (not (<= (+ ?x724 A_0 ?x726 ?x1605 ?x1637 A_2) 0.0)) $x47452 $x105683)))
 (let (($x770703 (or $x1596 $x1870 $x4152 (<= (+ ?x26020 ?x27045 (* (/ 1.0 3.0) S_4) L_2 ?x737) 0.0) (<= (+ A_3 A_0 ?x726 L_2 ?x746 ?x737) 0.0) $x65564)))
 (let (($x1843388 (or $x2173 (<= (+ A_2 ?x744 A_4 (* (- 1.0) S_3) ?x825) 0.0) (<= (+ ?x31666 ?x30267 (* (/ 1.0 2.0) S_3) L_2 ?x737) 0.0) $x86975 (<= (+ ?x1319 ?x1326 ?x1585 ?x1287 ?x911 ?x1533 ?x1298) 0.0))))
 (let ((?x133333 (+ (* (- (/ 3.0 4.0)) A_0) (* (/ 3.0 4.0) L_0) S_1 (* (/ 1.0 4.0) L_4) (* (- (/ 1.0 4.0)) A_4))))
 (let (($x135374 (<= ?x133333 0.0)))
 (let (($x1867 (<= (+ A_2 ?x744 (* (- 1.0) S_3)) 0.0)))
 (let (($x1777124 (or $x651 $x1867 $x3260 (<= (+ ?x1872 ?x1345 (* 2.0 S_1) ?x1287 ?x1298) 0.0))))
 (let (($x69882 (<= (+ (* (- 4.0) A_0) (* 4.0 L_0) (* 4.0 S_1) ?x1561 ?x1217) 0.0)))
 (let (($x46783 (<= (+ A_3 ?x1003 L_0 ?x891 ?x735 A_1) 0.0)))
 (let (($x1632 (<= (+ ?x1533 ?x1561 (* (- 1.0) S_3) L_0 ?x1003) 0.0)))
 (let (($x750454 (or $x641 $x1632 $x1867 (<= (+ A_0 ?x726 ?x724 (* (- 1.0) S_3) L_1 ?x746 A_3) 0.0) (<= (+ ?x7162 ?x7233 (* (- (/ 3.0 2.0)) S_3) S_0 L_1 ?x724 A_3) 0.0))))
 (let (($x7501 (<= (+ ?x1003 L_0 (* 2.0 S_2) L_4 ?x891) 0.0)))
 (let (($x783329 (or $x1553 $x1867 $x3258 $x7501 (not (<= (+ ?x1872 ?x1345 (* 2.0 S_2) ?x1561 ?x1217) 0.0)))))
 (let (($x111119 (<= (+ ?x1872 ?x1345 (* 2.0 S_2) ?x1561 ?x1217) 0.0)))
 (let (($x35666 (<= (+ (* (- (/ 4.0 3.0)) A_0) (* (/ 4.0 3.0) L_0) ?x35619 ?x35348 (* 4.0 A_3)) 0.0)))
 (let (($x787588 (or $x1865 $x1889 $x2160 $x22809 (<= (+ (* (/ 1.0 3.0) A_0) ?x33952 (* (/ 2.0 3.0) S_3) L_2 ?x737) 0.0))))
 (let ((?x134601 (+ (* (- (/ 1.0 4.0)) A_0) (* (/ 1.0 4.0) L_0) S_3 (* (/ 3.0 4.0) L_4) (* (- (/ 3.0 4.0)) A_4))))
 (let (($x833942 (or $x651 $x1921 $x2160 (<= (+ (* (- (/ 4.0 3.0)) A_0) (* (/ 4.0 3.0) L_0) ?x35619 ?x1561 ?x1217) 0.0) (<= ?x134601 0.0))))
 (let ((?x26730 (* (/ 2.0 3.0) A_4)))
 (let ((?x28058 (* (- (/ 2.0 3.0)) A_1)))
 (let ((?x26997 (* (- (/ 2.0 3.0)) L_4)))
 (let ((?x28034 (* (/ 2.0 3.0) L_1)))
 (let ((?x1213 (* (- 1.0) S_3)))
 (let (($x18128 (<= (+ ?x726 (* (- 2.0) S_3) S_0 A_4 ?x724 L_1) 0.0)))
 (let (($x592477 (or $x641 $x1632 $x1867 $x18128 (<= (+ A_0 ?x726 ?x1213 ?x28034 ?x26997 ?x28058 ?x26730) 0.0))))
 (let (($x28209 (<= (+ A_0 ?x1213 ?x726 (* (- 2.0) L_2) ?x1605 ?x1637 (* 2.0 A_2)) 0.0)))
 (let (($x818825 (or $x641 (<= (+ ?x735 ?x1561 (* (- 3.0) S_3) S_0 ?x724 ?x1003 A_4) 0.0) $x1867 $x18128 $x28209)))
 (let (($x588248 (or $x641 $x1596 (<= (+ ?x1350 ?x1351 ?x724 (* (- 2.0) S_2) L_1 ?x746 A_3) 0.0) (<= (+ A_0 ?x1351 (* (- 3.0) S_2) S_0 ?x724 L_1 A_3) 0.0))))
 (let ((?x26853 (* (/ 1.0 3.0) A_4)))
 (let ((?x6972 (* (- (/ 1.0 3.0)) A_1)))
 (let ((?x25632 (* (- (/ 1.0 3.0)) L_4)))
 (let ((?x18061 (* (/ 1.0 3.0) L_1)))
 (let ((?x1312 (* (- 1.0) S_2)))
 (let (($x18141 (<= (+ ?x1350 (* (- 3.0) L_0) (* (- 4.0) S_2) S_0 A_4 ?x724 L_1) 0.0)))
 (let (($x587319 (or $x641 $x1596 $x18141 (<= (+ A_0 ?x726 ?x1312 ?x18061 ?x25632 ?x6972 ?x26853) 0.0))))
 (let (($x690960 (or $x641 $x1596 $x1913 (<= (+ ?x737 L_2 ?x724 ?x1312 ?x726 S_0 L_1 A_3) 0.0))))
 (let (($x23086 (<= (+ (* (- 1.0) S_4) ?x724 ?x1003 S_0 L_1 A_3) 0.0)))
 (let (($x86155 (<= (+ ?x737 L_2 A_0 (* (- 2.0) S_2) ?x1351 S_0 L_1 ?x724 A_4) 0.0)))
 (let (($x814693 (or $x641 $x1596 (<= (+ ?x737 L_2 ?x1350 ?x1312 ?x1351 A_4 ?x724 L_1 ?x746) 0.0) $x86155)))
 (let (($x7282 (<= (+ ?x7235 (* (/ 3.0 2.0) A_0) (* (- (/ 3.0 2.0)) L_0) ?x1605 ?x1637) 0.0)))
 (let (($x772966 (or $x1618 $x2173 (not $x7282) (<= (+ ?x7235 (* (/ 3.0 2.0) A_0) ?x7233 ?x1322 L_2 ?x735 ?x737) 0.0))))
 (let (($x42289 (<= (+ ?x1217 (* 2.0 S_4) ?x1350 ?x726 ?x1322 (* 3.0 L_2) ?x735 ?x737) 0.0)))
 (let (($x759863 (or $x1618 $x2173 (<= (+ ?x825 S_4 ?x1533 A_1 ?x1322 ?x1326 A_0 ?x737) 0.0) $x42289)))
 (let (($x31953 (<= (+ (* (- (/ 5.0 3.0)) L_1) ?x27045 (* (/ 1.0 3.0) S_4) ?x1322 L_2 A_0 ?x737) 0.0)))
 (let (($x49783 (<= (+ ?x33957 (* (/ 2.0 3.0) L_0) (* (/ 2.0 3.0) S_3) ?x1326 ?x1533 ?x1561 ?x1319) 0.0)))
 (let (($x32211 (<= (+ ?x1003 L_0 S_1 L_2 ?x735 A_1 ?x737) 0.0)))
 (let (($x4144 (<= (+ ?x1872 ?x1345 ?x1585 (* (- 3.0) A_4) ?x2827 ?x1323 ?x1939) 0.0)))
 (let (($x1349 (<= (+ A_3 ?x891 L_4 L_1 (* (- 2.0) L_2) ?x746 A_2) 0.0)))
 (let (($x33840 (<= (+ A_0 ?x726 (* (- 2.0) L_2) ?x3307 ?x3303 ?x1939 ?x825) 0.0)))
 (let ((?x1307 (* 2.0 A_2)))
 (let ((?x1313 (* (- 2.0) L_2)))
 (let (($x4182 (<= (+ ?x1872 L_0 S_0 ?x891 L_4 L_1 ?x1313 ?x1307) 0.0)))
 (let (($x27891 (<= (+ L_1 ?x746 L_4 S_2 ?x744 A_2 ?x825) 0.0)))
 (let (($x26222 (<= (+ ?x1605 ?x1637 (* 2.0 S_2) ?x891 L_4 ?x744 A_2) 0.0)))
 (let (($x27875 (<= (+ ?x1605 ?x746 L_4 S_0 ?x1313 ?x1003 ?x1307 ?x825) 0.0)))
 (let ((?x27164 (* 2.0 S_0)))
 (let ((?x26545 (* 4.0 L_1)))
 (let (($x23630 (<= (+ ?x26545 ?x1637 ?x27164 ?x891 L_4 ?x1323 ?x1872 ?x1939) 0.0)))
 (let (($x26314 (<= (+ ?x1605 ?x1637 (* 2.0 S_4) (* (- 3.0) A_4) ?x2827 ?x1323 ?x1939) 0.0)))
 (let (($x50687 (not $x46783)))
 (let (($x28074 (<= (+ ?x28069 (* (/ 4.0 3.0) A_1) ?x27716 ?x28001 L_0 ?x1003) 0.0)))
 (let (($x1325 (<= (+ ?x1298 L_0 ?x1322 ?x1287 ?x911 ?x735 ?x1323 A_2) 0.0)))
 (let (($x4124 (<= (+ S_4 ?x1003 L_0 ?x1287 ?x911 ?x1313 ?x1307) 0.0)))
 (let (($x4180 (<= (+ ?x1003 L_0 S_2 ?x891 L_4 ?x744 A_2) 0.0)))
 (let (($x1853 (not (<= (+ A_2 ?x1003 L_0 ?x735 A_1 ?x825) 0.0))))
 (let (($x3331 (<= (+ A_4 ?x735 L_2 A_1 ?x737 ?x825) 0.0)))
 (let (($x2896 (<= (+ ?x1872 L_0 S_0 ?x911 L_1 ?x1323 ?x1939 ?x1217) 0.0)))
 (let (($x23220 (<= (+ A_2 ?x744 A_0 ?x1312 ?x726 L_1 ?x746) 0.0)))
 (let (($x1315 (<= (+ A_3 ?x1312 ?x891 L_4 ?x1313 A_2) 0.0)))
 (let (($x1235 (not $x1349)))
 (let (($x2847 (<= (+ ?x1003 L_0 S_3 ?x2827 ?x1323 ?x1939 ?x1850) 0.0)))
 (let (($x50576 (<= (+ ?x7253 ?x7233 ?x1312 ?x30558 ?x30555) 0.0)))
 (let (($x4136 (<= (+ ?x1872 ?x1345 (* 2.0 S_1) ?x891 L_4 ?x744 A_2) 0.0)))
 (let ((?x1891 (* (- 4.0) A_3)))
 (let ((?x2185 (* 4.0 A_2)))
 (let ((?x1306 (* (- 4.0) L_2)))
 (let (($x2990 (<= (+ ?x1003 L_0 A_4 ?x2827 ?x1306 ?x2185 ?x1891) 0.0)))
 (let (($x1827917 (or $x641 $x651 $x1596 $x2858 $x2896 $x2990 (<= (+ A_0 ?x726 ?x724 ?x1605 ?x1637 ?x1298 ?x891) 0.0))))
 (let (($x2864 (<= (+ S_4 ?x1003 L_0 ?x2866 ?x1306 ?x2185 ?x1891) 0.0)))
 (let (($x99754 (<= (+ ?x891 L_4 ?x1605 ?x1323 ?x1637 ?x1939) 0.0)))
 (let (($x133177 (or $x1596 (<= (+ S_4 ?x737 L_2 ?x1350 (* (- 2.0) S_2) ?x1351) 0.0))))
 (let (($x1309 (<= (+ ?x1298 ?x1003 ?x1213 L_0 ?x1287 ?x911 ?x1306 ?x1307) 0.0)))
 (let (($x48922 (<= (+ ?x825 ?x7162 (* (- (/ 1.0 2.0)) S_3) ?x7233 S_0 A_4 ?x724 ?x1605) 0.0)))
 (let (($x832786 (or $x641 $x1867 $x28209 $x48922 (<= (+ ?x825 L_1 A_1 ?x1213 S_0 A_4 ?x724 ?x1003) 0.0))))
 (let (($x104432 (<= (+ ?x30530 ?x30526 A_0 ?x726 L_1 ?x54556 ?x746 (* (/ 1.0 2.0) A_4)) 0.0)))
 (let (($x1830655 (or $x641 $x2160 $x3305 (<= (+ ?x3307 ?x746 (* (- 1.0) S_4) ?x27164 ?x1313 ?x1872 ?x1307) 0.0))))
 (let (($x27022 (not (<= (+ ?x1533 ?x1561 ?x891 L_4 ?x1345 ?x744 ?x1872 A_2) 0.0))))
 (let (($x2514 (<= (+ A_3 ?x1533 A_1 (* (- 1.0) S_0) L_2 A_0 ?x1319) 0.0)))
 (let (($x1239 (<= (+ ?x1217 S_4 A_0 ?x726 A_4 ?x724 (* 3.0 L_2) ?x737) 0.0)))
 (let (($x26152 (<= (+ ?x735 A_1 (* (- 1.0) S_4) A_4 ?x724 L_2 ?x737) 0.0)))
 (let (($x63550 (<= (+ (* (- (/ 3.0 2.0)) L_1) (* (/ 3.0 2.0) A_1) (* (- (/ 1.0 2.0)) S_4) L_0 ?x1003) 0.0)))
 (let (($x44924 (<= (+ ?x1217 (* 2.0 S_4) ?x1350 ?x1351 (* (- 2.0) S_2) ?x1326) 0.0)))
 (let (($x49781 (<= (+ (* (/ 4.0 3.0) A_0) ?x33952 (* (/ 2.0 3.0) S_3) ?x1322 L_2 ?x735 ?x737) 0.0)))
 (let (($x31669 (<= (+ (* (- (/ 3.0 2.0)) L_1) ?x30267 (* (/ 1.0 2.0) S_3) ?x1322 L_2 A_0 ?x737) 0.0)))
 (let (($x573873 (or $x641 (<= (+ L_1 ?x1213 S_0 ?x744 ?x1003 A_2) 0.0) $x1867 $x28209)))
 (let (($x710915 (or $x641 (not $x1632) (<= (+ A_1 (* (- 2.0) S_3) S_0 ?x724 ?x1003 A_3) 0.0) $x1867)))
 (let ((?x1355 (* (- 3.0) A_2)))
 (let ((?x1252 (* 3.0 L_2)))
 (let ((?x1352 (* 3.0 A_4)))
 (let (($x4178 (<= (+ ?x2211 ?x1350 ?x1351 ?x1352 ?x1353 ?x1252 ?x1355) 0.0)))
 (let (($x2462 (<= (+ ?x825 ?x735 A_1 A_4 ?x724 ?x1326 ?x737) 0.0)))
 (let (($x1927 (<= (+ L_2 A_0 ?x726 A_4 ?x724 L_1 ?x746 ?x825) 0.0)))
 (let (($x831739 (or $x641 $x1596 $x1927 (<= (+ ?x825 ?x726 ?x1312 S_0 A_4 ?x724 ?x1605) 0.0))))
 (let (($x100389 (or $x1867 (<= (+ ?x825 S_4 ?x735 A_1 ?x1213 L_2) 0.0) (<= (+ ?x1217 (* 2.0 S_4) ?x1350 ?x1351 ?x1326 ?x1605 ?x1637) 0.0))))
 (let (($x2195 (not $x2160)))
 (let (($x789698 (or $x641 $x1254 $x1596 $x2195 $x2342 (not (<= (+ A_4 ?x724 ?x1533 ?x1252 ?x1561 ?x1355) 0.0)) $x4182 (= (+ A_4 ?x724 ?x1533 ?x1252 ?x1561 ?x1355) 0.0))))
 (let (($x731103 (or $x1618 $x2173 (<= (+ ?x1350 ?x726 ?x1322 (* (- 2.0) L_4) ?x735 ?x1252 ?x1355 ?x1298) 0.0) (<= (+ ?x1533 A_1 ?x724 ?x1322 ?x1326 A_0 ?x1319 A_3) 0.0))))
 (let (($x1789841 (or $x1618 $x1867 $x1913 (<= (+ ?x735 A_1 ?x724 ?x1213 L_2 ?x737 A_3) 0.0))))
 (let (($x56715 (<= (+ ?x735 A_1 ?x30558 (* (/ 1.0 2.0) L_4) L_0 ?x1003 ?x30555 ?x50510) 0.0)))
 (let (($x739675 (or $x1618 $x2173 (<= (+ ?x1350 ?x726 ?x1322 A_4 ?x724 ?x735 ?x1326 ?x1319) 0.0) $x56715)))
 (let (($x830020 (or $x1618 $x1632 $x1867 (<= (+ A_0 ?x726 ?x1213 (* (- 2.0) L_4) ?x1326 ?x1319 ?x1298) 0.0))))
 (let (($x56892 (<= (+ (* (- (/ 2.0 3.0)) S_4) (* (- (/ 4.0 3.0)) A_0) ?x33920 S_0 L_1 ?x744 A_2) 0.0)))
 (let (($x696756 (or $x641 $x2160 (<= (+ (* (- 1.0) S_4) A_0 ?x726 ?x1323 ?x3307 ?x3303 ?x1939) 0.0) $x56892)))
 (let (($x1357 (<= (+ ?x1217 ?x1350 ?x1351 ?x1352 ?x1353 (* 5.0 L_2) ?x1355) 0.0)))
 (let ((?x1317 (* (- 2.0) L_4)))
 (let ((?x1316 (* 2.0 A_4)))
 (let (($x1330 (<= (+ ?x1217 ?x726 S_0 ?x1316 ?x1317 L_1 ?x1252 ?x737) 0.0)))
 (let (($x801665 (or $x1596 $x1618 (<= (+ ?x1350 ?x1351 (* (- 2.0) S_2) A_4 ?x724 L_2 ?x737) 0.0))))
 (let (($x566365 (or $x641 $x1596 $x23220 (<= (+ ?x726 (* (- 2.0) S_2) S_0 ?x744 L_1 A_2) 0.0))))
 (let (($x715611 (or $x1618 $x1867 (<= (+ ?x1533 ?x1561 (* (- 2.0) S_3) A_4 ?x724 L_2 ?x737) 0.0) $x27022)))
 (let (($x797109 (or $x1618 $x1632 $x1867 (<= (+ A_0 ?x726 ?x1213 A_4 ?x724 L_2 ?x737) 0.0))))
 (let (($x702496 (or $x1618 $x2160 (<= (+ (* (- 1.0) S_4) A_0 ?x726 ?x1353 ?x1252 ?x1355 ?x2331) 0.0) (<= (+ ?x735 A_1 (* (- 1.0) S_4) ?x1317 ?x1326 ?x1319 ?x1298) 0.0))))
 (let (($x2346 (not $x2342)))
 (let (($x712502 (or $x1867 $x2346 $x26314 (<= (+ ?x7235 ?x30555 ?x30558 ?x735 L_4 L_0 ?x825) 0.0))))
 (let (($x714715 (or $x1618 $x2173 (<= (+ ?x26397 ?x1561 ?x3310 A_4 ?x724 ?x1252 ?x1350 ?x1355) 0.0) $x27022)))
 (let (($x1321 (<= (+ ?x1217 A_0 ?x726 S_2 ?x1316 ?x1317 (* 4.0 L_2) ?x1319) 0.0)))
 (let (($x44868 (or $x1632 $x1867 (<= (+ ?x1217 (* 2.0 S_4) A_0 ?x1213 ?x726 ?x1326) 0.0))))
 (let (($x33825 (or $x1596 (<= (+ ?x33720 (* (- (/ 2.0 3.0)) L_0) (* (/ 1.0 3.0) S_3) ?x1312) 0.0))))
 (let (($x29488 (or (<= (+ ?x1533 ?x1561 S_4 (* (- 3.0) S_3)) 0.0) $x1867 (<= (+ ?x7235 ?x7253 ?x7233 ?x1213) 0.0))))
 (let (($x7256 (<= (+ ?x7235 (* (/ 3.0 2.0) A_0) (* (- (/ 3.0 2.0)) L_0) (* (- 2.0) S_2)) 0.0)))
 (let (($x830482 (or $x1596 $x1618 (<= (+ A_0 ?x726 ?x1312 ?x724 L_2 ?x737 A_3) 0.0))))
 (and (<= ?x735 ?x726) (<= ?x724 ?x744) (<= ?x744 ?x735) (or $x1357 $x1596 $x1618) $x830482 (or $x1596 $x1618 (<= (+ ?x724 ?x735 ?x1326 A_1 ?x1319 A_3) 0.0)) (or $x1596 $x7256) (or $x1596 (<= (+ ?x737 L_2 S_3 A_0 ?x1312 ?x726) 0.0)) (or $x1618 $x7443) (or $x1357 $x1618 $x1867 $x2462) (or $x2160 (<= (+ ?x2211 ?x1003 L_0 ?x7423) 0.0)) $x29488 (or $x641 $x2160 $x3305 $x23086) (or $x1867 (<= (+ ?x1003 L_0 ?x1213 (* 2.0 S_1)) 0.0)) $x33825 (or $x1618 $x1867 (<= (+ ?x7235 ?x7162 ?x7175 ?x1326 ?x1533 ?x1561 ?x1319) 0.0)) (or $x1618 $x1867 (<= (+ A_4 ?x724 ?x1533 ?x1252 ?x1561 ?x1355) 0.0)) (or $x1618 $x1867 $x32211) (or $x1618 $x1867 (<= (+ ?x1003 L_0 S_2 ?x1326 ?x1533 ?x1561 ?x1319) 0.0)) (or $x651 $x1309 $x1867 $x2342 $x4144) (or $x1618 $x1867 (<= (+ ?x825 S_4 ?x735 A_1 ?x1326 ?x737) 0.0)) $x44868 (or (<= (+ ?x825 S_1 A_4 ?x724 ?x1326 ?x737) 0.0) $x1618 $x1867) (or $x641 $x1330 $x1618 $x1632 $x1867 $x1927) (or $x1344 $x1867 $x4144 (<= (+ L_4 S_3 ?x825) 0.0)) (or $x651 $x1344 $x1867 $x3262 $x4144) (or $x1596 $x1618 (<= (+ ?x26020 ?x27045 ?x26853 ?x25632 L_2 ?x737) 0.0)) (or $x1596 $x1618 $x4178) (or $x641 $x1330 $x1618 $x1867 $x2462 $x28209) (or $x641 $x1632 $x1867 $x1927 $x48922) (or $x1321 $x1618 $x1867 $x2462) (or $x1321 $x1618 $x2173 $x2462) (or $x2160 $x31531) $x714715 $x712502 (or $x1867 $x2350 $x26314 $x28065) (or $x1867 $x2346 $x2900 $x26314) $x702496 (or $x651 $x2160 $x26222 $x27891) (or $x1239 $x1618 $x1867 $x2462) $x797109 (or $x1618 $x1867 $x4178 $x56715) (or $x1254 $x1867 $x2195 $x2900 $x4180) (or $x2160 $x2217 $x31853) (or $x1618 $x1867 (<= (+ ?x724 ?x735 ?x1326 A_1 ?x1319 A_3) 0.0)) (or $x1254 $x1596 (<= (+ ?x2211 ?x1003 L_0 ?x7423) 0.0)) $x715611 (or $x651 $x1349 $x1867 $x26222 $x27891) $x566365 (or $x651 $x1867 $x26984 $x28065) $x801665 (or $x641 $x1330 $x1596 $x1618 $x1927) (or (<= (+ ?x825 S_1 A_4 ?x724 ?x1326 ?x737) 0.0) $x1596 $x1618) (or $x641 $x1330 $x1618 $x1927 $x2173 $x2462) (or $x1357 $x1618 $x2173 $x2462) (or $x1618 $x2173 $x4178 $x56715) (or $x651 $x2160 $x2900 $x4180) $x696756 $x830020 (or $x651 $x2160 $x2342 $x4144) (or $x1254 $x1867 $x2195 $x4136 $x4152) (or $x1254 $x1867 $x2195 $x4144 $x4152) (or $x651 $x1336 $x1867 $x4152 $x65564) (or $x651 $x2160 $x4136 $x4152) (or $x1618 $x2160 (<= (+ ?x26020 ?x27045 ?x26853 ?x25632 L_2 ?x737) 0.0)) $x739675 $x1789841 (or $x1618 $x2173 (<= (+ ?x724 ?x735 ?x1326 A_1 ?x1319 A_3) 0.0)) $x731103 $x789698 (or $x651 $x1349 $x1867 $x4144 $x4152) (or $x641 $x1254 $x1867 $x1896 $x2195 $x4182) $x100389 $x831739 (or $x1239 $x1618 $x2173 $x2462) (or $x1349 $x1867 $x3331 $x4124) (or $x1618 $x2173 (<= (+ ?x26020 ?x27045 ?x26853 ?x25632 L_2 ?x737) 0.0)) (or $x651 $x2160 $x2847 $x4144) (or $x1618 $x2160 $x4178 $x26152) (or $x641 $x1853 $x2160 $x22809 $x23630 $x27022) (or $x641 $x651 $x2160 $x4152 $x4182 $x99754) (or $x1618 $x2160 (<= (+ ?x724 ?x735 ?x1326 A_1 ?x1319 A_3) 0.0)) (or $x1618 $x2173 (<= (+ ?x1003 L_0 S_2 ?x1326 ?x1533 ?x1561 ?x1319) 0.0)) $x710915 $x573873 (or $x1618 $x1867 $x26152 $x27022) (or $x1596 $x1618 $x49783) (or $x1618 $x2173 $x31669 $x49781) (or $x1596 $x44924) (or $x1618 $x2160 (<= (+ ?x1003 L_0 S_2 ?x1326 ?x1533 ?x1561 ?x1319) 0.0)) (or $x1618 $x2160 $x49783) (or $x1618 $x2173 $x27022 $x63550) (or $x1618 $x2173 $x26152 $x27022) (or $x651 $x2173 $x2847 $x4144 $x46783) (or $x651 $x1596 (not $x3331) $x4144 $x4152) (or $x1239 $x1596 $x1618) (or $x651 $x1344 $x1596 $x4136 $x4152) (or $x641 $x1867 $x2346 $x2900 $x4182 $x99754) (or $x641 $x651 $x1867 $x2342 $x4182 $x46783 $x99754) (or $x651 $x1867 $x2342 $x4136 $x46783) (or $x1344 $x1867 $x4136 $x50687) (or $x641 $x651 $x1867 $x2858 $x2896 $x3321) (or $x641 $x651 $x1349 $x1867 $x2342 $x4182) (or $x641 $x651 $x2160 $x2896 $x3321 $x4182 $x99754) (or $x651 $x2160 $x2836 $x4180) (or $x651 $x2173 $x2864 $x4124 $x46783) (or $x651 $x1309 $x1867 $x4124 $x28065) (or $x651 $x1867 (not $x3331) $x4124 $x28065) (or $x1344 $x1867 $x4180 $x50687) (or $x651 $x1309 $x1867 $x4180 $x27891) (or $x641 $x1344 $x1867 $x4182 $x50687 $x99754) (or $x1344 $x1867 $x4124 $x28074 $x50687) (or $x641 $x651 $x1309 $x1867 $x2342 $x4182 $x33840) (or $x1867 $x2346 $x2900 $x4136) (or $x1254 $x2173 $x2195 $x4180 $x27891) (or $x641 $x651 $x1254 $x2173 $x2896 $x3321 $x4182 $x99754) (or $x1254 $x2173 $x2195 $x4144 $x23020) (or $x1254 $x2173 $x2195 $x4144 $x4152) (or $x1596 $x1618 $x32211) (or $x641 $x2160 $x2514 $x23630 $x27022 $x27875) (or $x641 $x651 $x1913 $x2160 $x27875 $x46783) (or $x641 $x651 $x2160 (not $x2514) $x23630 $x27022) $x1830655 (or $x651 $x1867 $x2864 $x4124 $x46783) (or $x651 $x1867 $x2836 $x4180 $x46783) (or $x651 $x1867 $x2894 (not $x3331) $x4136) (or $x651 $x1349 $x1867 $x2342 $x4136) (or $x1349 $x1867 $x3331 $x4180) (or $x651 $x1867 (not $x3331) $x4180 $x27891) (or $x641 $x651 $x1349 $x1867 $x23630 $x27875 $x104432) (or $x651 $x1349 $x1867 $x26314 $x28065) $x832786 (or $x651 $x1309 $x1867 $x2342 $x4136) (or $x641 $x651 $x1867 $x1913 $x27875 $x46783) $x133177 (or $x651 $x1344 $x2173 $x4124 $x4152) (or $x641 $x651 $x2173 $x4152 $x4182 $x46783 $x99754) (or $x641 $x651 $x1344 $x2173 $x4152 $x4182 $x99754) (or $x641 $x651 $x1344 $x1596 $x4152 $x4182 $x99754) (or $x1618 $x2173 (<= (+ ?x825 S_4 ?x735 A_1 ?x1326 ?x737) 0.0)) (or $x1596 $x1618 (<= (+ ?x825 S_4 ?x735 A_1 ?x1326 ?x737) 0.0)) (or $x651 $x2173 $x2836 $x4180 $x46783) (or $x641 $x651 $x2173 $x2896 (not $x2990) $x3321) (or $x641 $x651 $x2173 $x2858 $x2896 $x3321) (or $x651 $x1254 $x1596 $x4144 $x4152) (or $x651 $x1349 $x1596 $x4136 $x4152) (or $x651 $x1254 $x1596 $x4136 $x4152) (or $x651 $x1596 $x2894 $x4136 $x46783) (or $x651 $x1596 $x2864 $x4124 $x46783) $x1827917 (or $x651 $x1596 (not $x3331) $x4124 $x4152) (or $x641 $x651 $x1596 (not $x3331) $x4152 $x4182 $x23220) (or $x651 $x1235 $x1315 $x4136 $x50576) (or $x651 $x1596 $x2847 $x4144 $x46783) (or $x1349 $x1596 $x3331 $x4144 $x22809) (or $x651 $x1344 $x1596 $x4144 $x4152) (or $x651 $x1235 $x1315 $x4144 $x50576) (or $x651 $x1325 $x2173 $x4144 $x4152) (or $x651 $x1325 $x2173 $x4180 $x27891) (or $x651 $x1235 $x1315 $x4124) (or $x641 $x651 $x1235 $x1315 $x4182 $x23220) (or $x641 $x651 $x1596 $x2858 $x2896 $x3321) (or $x1349 $x1596 $x3331 $x4124) (or $x641 $x1349 $x1596 $x3331 $x4182 $x33840) (or $x1344 $x1596 $x4124 $x50687) (or $x1596 $x1618 (<= (+ ?x7235 ?x7162 ?x7175 ?x1326 ?x1533 ?x1561 ?x1319) 0.0)) (or $x651 $x2173 $x26984 $x27867) (or $x651 $x1349 $x2173 $x4180 $x27891) (or $x641 $x1853 $x2173 $x4152 $x4182 $x22809 $x33840) (or $x651 $x2173 $x26314 $x28065 $x46783) (or $x641 $x651 $x2173 $x23630 $x27875 $x46783) (or $x1344 $x2173 $x4180 $x50687) (or $x651 $x28065 $x28992) (or $x651 $x1349 $x2173 $x4124 $x28065) (or $x651 $x1325 $x2173 $x4124 $x28065) (or $x641 $x651 $x1325 $x2173 $x4152 $x4182 $x33840) (or $x1344 $x2173 $x4144 $x28074 $x50687) (or $x651 $x1349 $x2173 $x26314 $x28065) (or $x641 $x651 $x1349 $x2173 $x23630 $x27875) (or $x651 $x1349 $x2173 $x26222 $x27891) (or $x641 $x651 $x1349 $x2173 $x4152 $x4182 $x33840) (or $x651 $x1349 $x2173 $x4144 $x4152) (or $x1618 $x2160 $x32211) (or $x1618 $x2173 $x49783) (or $x1618 $x2173 $x7282 $x31953) $x759863 (or $x1618 $x2173 (<= (+ ?x7235 ?x7162 ?x7175 ?x1326 ?x1533 ?x1561 ?x1319) 0.0)) $x772966 $x814693 (or $x641 $x1913 $x2160 $x23086) $x690960 (or $x651 $x2160 $x3329 $x64896 $x107356) (or $x1254 $x1867 (<= (+ ?x2211 ?x1003 L_0 ?x7423) 0.0)) $x587319 $x588248 (or $x1254 $x1867 $x31853) (or $x641 $x1254 $x1867 $x28209 $x57395 $x65327) $x818825 $x592477 (or $x1867 $x4152 (<= (+ ?x891 L_4 ?x744 ?x737 ?x1298) 0.0) $x105956) (or $x651 $x2160 $x3258 $x105956) (or $x651 $x1865 $x2160 $x2217 $x3262) $x833942 $x787588 (or $x1596 $x1865 (<= (+ L_4 S_3 ?x825) 0.0)) (or $x1596 $x1889 $x3329 $x52335 $x105956) (or $x2160 $x22772 $x31853) (or $x1344 $x1867 $x7287 $x199656) (or $x651 $x1867 $x4152 $x46783 $x107356) (or $x651 $x1867 $x3486 $x52335 $x65564) (or $x641 $x1254 $x1867 $x1896 $x47601 $x57395) (or $x651 $x2160 $x2217 $x3329 $x107356) (or $x1889 $x2173 $x22567 (not $x35666) $x35652) (or $x651 $x1867 $x7501 $x52335 $x111119) $x783329 $x750454 (or $x651 $x1867 $x3258 $x52335 $x105956) (or $x651 $x1867 $x4152 $x46783 $x105956) (or $x1867 $x2345 $x3321 $x4152 $x107356) (or $x1344 $x1867 $x107356 $x199656) (or $x1259 $x1344 $x1553 $x1867 $x107356) (or $x1259 $x1344 $x1553 $x1867 $x105956) (or $x1867 $x7138 $x165890 $x199629) (or $x1867 $x7138 $x65564 $x165890) (or $x1259 $x1344 $x1553 $x1867 $x7287) (or $x651 $x1865 $x2173 $x4152) (or $x1553 $x1867 $x3260 (not $x69882) $x135374) (or $x651 $x1867 $x3329 $x52335 $x107356) (or $x651 $x1867 $x52335 $x69882 $x135374) $x1777124 (or $x651 $x1865 $x2160 $x3329 $x22809) (or $x651 $x2160 $x2217 $x3260 $x135374) (or $x641 $x1896 $x2160 $x2217 $x57395 $x65327) (or $x2345 $x4152 $x7443 $x35301 (not $x65940)) (or $x651 $x1596 $x1865 $x3329 $x22809) (or $x651 $x2173 $x3258 $x35301 $x52335) (or $x651 $x23030 $x86975) (or $x2173 $x2346 $x2900 $x105683) $x1843388 (or $x1254 $x2173 (<= (+ ?x2211 ?x1003 L_0 ?x7423) 0.0)) (or $x651 $x1336 $x1596 $x4152 $x105956) $x770703 (or $x1553 $x1596 $x1889 $x2217 $x31853) (or $x1596 $x2345 $x3486 $x4152 $x76113 $x105956) (or $x1553 $x23030 $x105683 (not $x133913)) $x1792529 (or $x23030 (not $x33966) (not $x47601) (not $x86975) $x133913) (or $x651 $x23030 $x133913) (or $x1254 $x1867 $x31531) (or $x651 $x2160 $x26984 $x27867) (or $x651 $x2160 $x2894 $x52335) (or $x1909 $x2160 $x4152 (<= (+ ?x891 L_4 ?x744 ?x737 ?x1298) 0.0) $x107356) (or $x651 $x1909 $x2160 $x3260 $x22809 $x107356) (or $x1553 $x2173 $x4152 $x35652 (not $x146825)) (or $x651 $x23030 $x146825) $x692816 (or $x651 $x2160 $x3262 $x3273 $x22809) (or $x1254 $x1596 $x2217 $x31853) (or $x641 $x1553 $x1596 $x1889 $x1896 $x2217 $x57395) (or $x641 $x1254 $x1596 $x1896 $x57395 $x64896) (or $x651 $x2173 $x23020 $x35652) (or $x651 $x1596 $x3329 $x52335 $x105956) (or $x1259 $x1344 $x1553 $x1596 $x105956) (or $x2173 $x4152 (<= (+ ?x891 L_4 ?x744 ?x737 ?x1298) 0.0) $x35301) (or $x651 $x1865 $x2173 $x3329 $x22809) (or $x651 $x2173 $x3262 $x3273 $x22809) (or $x2173 $x2330 $x7138 $x65564 $x165890) (or $x1254 $x2173 $x31531) (or $x651 $x1336 $x2173 $x4152 $x105956) (or $x2173 $x7138 $x65564 $x165890 $x278703) (or $x1254 $x1596 $x22772 $x31853) $x1777732 (or $x651 $x1336 $x1596 $x1870 $x4152 $x65564) (or $x641 $x1254 $x1596 $x1896 $x2217 $x57395) (or $x651 $x1596 $x3273 $x3486 $x22809) (or $x651 $x2173 $x3273 $x3486 $x22809) (or $x1596 $x1945 $x2350 $x107356 $x199656) (or $x1259 $x1344 $x1553 $x1596 $x7287 $x28065 $x199629) (or $x1596 $x1945 $x7138 $x165890 $x199629) (or $x4152 $x7443 $x35301 $x50635 (not $x65940)) $x701634 $x1828427 (or $x1596 $x1870 $x7284 $x27659 $x30566) (or $x1596 $x1889 $x1909 $x4152 $x22567 $x107356 $x199629) (or $x641 $x1896 $x2160 (not $x3305) $x57395 $x100369) $x1815863 (or $x641 $x2160 $x47452 $x57395 $x65327 $x100369) (or $x651 $x1596 $x1909 $x4152 $x107356 $x199629) (or $x651 $x1596 $x1870 $x3486 $x22809 $x52335 $x65564) (or $x651 $x1596 $x3262 $x3273 $x22809) (or $x641 $x1254 $x1596 $x1896 $x57395 $x100369) (or $x1596 $x1870 $x7284 $x30534 $x30564) (or $x1344 $x1596 $x2330 $x65564 $x199656) (or $x1344 $x1596 $x2330 $x107356 $x199656) (or $x1344 $x1596 $x1945 $x65564 $x199656) (or $x651 $x1596 $x1909 $x3260 $x22809 $x52335 $x107356) $x1837513 (or $x1596 $x1889 $x1909 $x22809 $x49477) (or $x1553 $x1596 $x1889 $x1909 $x4152 $x107356) $x1829193 (or $x651 $x7443 $x31793 $x55287) (or $x1344 $x1596 $x7287 $x30559 $x199656) (or $x1259 $x1344 $x1553 $x1596 $x7287 $x30559) (or $x651 $x1870 $x2173 $x3486 $x22809 $x52335 $x65564) (or $x651 $x1870 $x2173 $x4152 $x65564 $x199629) $x1850067 (or $x2173 $x2346 $x2900 $x64304) (or $x2342 $x7443 $x55287 $x64304 (not $x161449)) $x1857363 (or $x1596 $x7138 $x65564 $x165890 $x278703) $x1848132 (or $x651 $x2173 $x3258 $x3273) (or $x651 $x2858 $x7443 $x64304 $x174171) $x733813 (or $x651 $x2173 $x23020 $x86975) (or $x651 $x2173 $x3329 $x52335 $x105956) (or $x1870 $x2173 $x7284 $x30534 $x199656) (or $x641 $x1254 $x1896 $x2173 $x47601 $x57395 $x100369) (or $x1596 $x1870 $x27659 $x30566 $x65564) (or $x1344 $x1596 $x2345 $x3213 $x159917) (or $x1344 $x1596 $x1909 $x2350 $x3321 $x4152 $x107356) $x1774958 (or $x1596 $x1909 $x3213 $x70200 $x107356) (or $x1259 $x1344 $x1596 $x49477 $x159917) (or $x1596 $x1909 $x2894 $x49477 $x70200) (or $x1344 $x1596 $x107356 $x199656 $x278703) (or $x1344 $x2173 $x7287 $x30559 $x199656) (or $x1870 $x2173 $x7138 $x65564 $x199656) (or $x1344 $x2173 $x105956 $x199656) (or $x1259 $x1344 $x1553 $x2173 $x105956) (or $x651 $x28992 $x30553 $x47601 $x165822) (or $x651 (not $x31793) $x161449 $x174171) $x1857693 $x1778907 (<= (+ ?x825 S_3 L_2) 0.0) (<= (+ S_0 L_0 ?x1003) 0.0) (<= (+ L_1 ?x746 S_1) 0.0) (<= (+ ?x1322 S_0) 0.0) (<= (+ ?x1213 S_2) 0.0) (<= (+ ?x737 L_2 S_2) 0.0) (<= (+ (* (- 1.0) S_4) S_3) 0.0) (<= (+ S_4 ?x891 L_4) 0.0) (<= (+ ?x1312 S_1) 0.0))))))))))))))))))))))))))))))))))))))))))))))))))))))))))))))))))))))))))))))))))))))))))))))))))))))))))))))))))))))))))))))))))))))))))))))))))))))))))))))))))))))))))))))))))))))))))))))))))))))))))))))))))))))))))))))))))))))))))))))))))))))))))))))))))))))))))))))))))))))))))))))))))))))))))))))))))))))))))))
(check-sat)
